peakDumbCharging = 11100; 
Machine = anon_enum(16); 
machineSpeed = [3700,3700,3700,3700,3700,3700,3700,3700,3700,3700,3700,3700,3700,3700,3700,3700]; 
machineLoad = [3700,3700,3700,3700,3700,3700,3700,3700,3700,3700,3700,3700,3700,3700,3700,3700]; 
Car = anon_enum(16); 
demandCar = [21680,12200,2120,3520,9800,12840,6640,11200,13720,13960,11960,21360,15640,31640,16640,16560]; 
arrivalCar = [78,75,74,71,70,68,65,65,59,57,55,52,49,33,31,31]; 
departureCar = [85,80,76,73,74,72,69,69,64,62,59,59,55,58,37,65]; 
